/* objective function */
max: 
   420 x11 
  +360 x12 
  +300 x13 
  +420 x21 
  +360 x22 
  +300 x23 
  +420 x31 
  +360 x32 
  +300 x33;

/* constraints */
cap1: x11 + x12 + x13 <= 750;
cap2: x21 + x22 + x23 <= 900;
cap3: x31 + x32 + x33 <= 450;
stor1: 20 x11 + 15 x12 + 12 x13 <= 13000;
stor2: 20 x21 + 15 x22 + 12 x23 <= 12000;
stor3: 20 x31 + 15 x32 + 12 x33 <= 5000;
dem1: x11 + x21 + x31 <= 900;
dem2: x12 + x22 + x32 <= 1200;
dem3: x13 + x23 + x33 <= 750;
equal1: 900 x11 + 900 x12 + 900 x13 - 750 x21 - 750 x22 - 750 x23 = 0;
equal2: 450 x21 + 450 x22 + 450 x23 - 900 x31 - 900 x32 - 900 x33 = 0;